\ LP format - for model browsing. Use MPS format to capture full model detail.
Minimize
  0 x[0,0] + 8.924925696387076 x[0,1] + 8.83001132656489 x[0,2]
   + 6.677070861190923 x[0,3] + 6.776790479023201 x[0,4]
   + 3.779772717001287 x[0,5] + 2.375112187394671 x[0,6]
   + 9.687893006303069 x[0,7] + 9.960981674971498 x[0,8]
   + 7.82082579072246 x[0,9] + 1.518631786886012 x[0,10]
   + 6.323456109717549 x[0,11] + 9.867905141627174 x[0,12]
   + 3.010090273278318 x[0,13] + 6.184351148399838 x[0,14]
   + 6.832004780794803 x[0,15] + 8.924925696387076 x[1,0]
   + 17.1021386499074 x[1,2] + 4.589985923282769 x[1,3]
   + 7.392316488427836 x[1,4] + 12.64925187584832 x[1,5]
   + 11.24510485469964 x[1,6] + 10.12431968315981 x[1,7]
   + 18.48318694132922 x[1,8] + 8.860815018155995 x[1,9]
   + 9.832474191830048 x[1,10] + 6.7780526280756 x[1,11]
   + 3.047078954493509 x[1,12] + 11.74815070126999 x[1,13]
   + 9.160931420613332 x[1,14] + 13.44114615224452 x[1,15]
   + 8.83001132656489 x[2,0] + 17.1021386499074 x[2,1]
   + 15.50634940288533 x[2,3] + 11.56566539775638 x[2,4]
   + 5.414396450902363 x[2,5] + 7.347019531166493 x[2,6]
   + 17.68269363610212 x[2,7] + 1.659830251789894 x[2,8]
   + 15.99531023243252 x[2,9] + 7.493977017790454 x[2,10]
   + 14.9707000323158 x[2,11] + 17.02442805043786 x[2,12]
   + 5.861518363473073 x[2,13] + 14.09832374404935 x[2,14]
   + 11.59990003017563 x[2,15] + 6.677070861190923 x[3,0]
   + 4.589985923282769 x[3,1] + 15.50634940288533 x[3,2]
   + 9.015260217005007 x[3,4] + 10.33367315860977 x[3,5]
   + 8.547958532796542 x[3,6] + 5.778444251362836 x[3,7]
   + 16.61387583658776 x[3,8] + 4.313236202375174 x[3,9]
   + 8.059004421271688 x[3,10] + 2.194980288220078 x[3,11]
   + 7.31112982384169 x[3,12] + 9.673284476512894 x[3,13]
   + 4.634916101741141 x[3,14] + 9.249353263229342 x[3,15]
   + 6.776790479023201 x[4,0] + 7.392316488427836 x[4,1]
   + 11.56566539775638 x[4,2] + 9.015260217005007 x[4,3]
   + 9.011062955387731 x[4,5] + 8.726280759647528 x[4,6]
   + 14.32286336523913 x[4,7] + 13.1749799356435 x[4,8]
   + 12.49740971965256 x[4,9] + 6.386111085071326 x[4,10]
   + 10.28003352341148 x[4,11] + 5.963463545145161 x[4,12]
   + 7.98777201411389 x[4,13] + 11.56038967203322 x[4,14]
   + 13.56261111226924 x[4,15] + 3.779772717001287 x[5,0]
   + 12.64925187584832 x[5,1] + 5.414396450902363 x[5,2]
   + 10.33367315860977 x[5,3] + 9.011062955387731 x[5,4]
   + 1.932771475109494 x[5,6] + 12.29423291793641 x[5,7]
   + 6.313484781561391 x[5,8] + 10.584561048328 x[5,9]
   + 2.920997962390828 x[5,10] + 9.601392770261743 x[5,11]
   + 13.28917795647612 x[5,12] + 1.032117020027261 x[5,13]
   + 8.698033227459579 x[5,14] + 6.915283777281211 x[5,15]
   + 2.375112187394671 x[6,0] + 11.24510485469964 x[6,1]
   + 7.347019531166493 x[6,2] + 8.547958532796542 x[6,3]
   + 8.726280759647528 x[6,4] + 1.932771475109494 x[6,5]
   + 10.38137162694159 x[6,7] + 8.208948416246079 x[6,8]
   + 8.655981724568088 x[6,9] + 2.366196105742373 x[6,10]
   + 7.69467977455425 x[6,11] + 12.23863302113543 x[6,12]
   + 1.824206798482465 x[6,13] + 6.779297314727132 x[6,14]
   + 5.595453922226686 x[6,15] + 9.687893006303069 x[7,0]
   + 10.12431968315981 x[7,1] + 17.68269363610212 x[7,2]
   + 5.778444251362836 x[7,3] + 14.32286336523913 x[7,4]
   + 12.29423291793641 x[7,5] + 10.38137162694159 x[7,6]
   + 18.34326541514611 x[7,8] + 1.89846647448357 x[7,9]
   + 11.19162155469709 x[7,10] + 4.046805271037077 x[7,11]
   + 13.0247382097762 x[7,12] + 12.08415705234142 x[7,13]
   + 3.605884682520931 x[7,14] + 7.529319573105195 x[7,15]
   + 9.960981674971498 x[8,0] + 18.48318694132922 x[8,1]
   + 1.659830251789894 x[8,2] + 16.61387583658776 x[8,3]
   + 13.1749799356435 x[8,4] + 6.313484781561391 x[8,5]
   + 8.208948416246079 x[8,6] + 18.34326541514611 x[8,7]
   + 16.73850837249789 x[8,9] + 8.732833689926878 x[8,10]
   + 15.90336358622744 x[8,11] + 18.54245110203433 x[8,12]
   + 6.950961061799995 x[8,13] + 14.81141757857164 x[8,14]
   + 11.8089254578651 x[8,15] + 7.82082579072246 x[9,0]
   + 8.860815018155995 x[9,1] + 15.99531023243252 x[9,2]
   + 4.313236202375174 x[9,3] + 12.49740971965256 x[9,4]
   + 10.584561048328 x[9,5] + 8.655981724568088 x[9,6]
   + 1.89846647448357 x[9,7] + 16.73850837249789 x[9,8]
   + 9.331590660111912 x[9,10] + 2.299546429189744 x[9,11]
   + 11.62198780000046 x[9,12] + 10.30794659453994 x[9,13]
   + 1.939285464182847 x[9,14] + 6.593759359488961 x[9,15]
   + 1.518631786886012 x[10,0] + 9.832474191830048 x[10,1]
   + 7.493977017790454 x[10,2] + 8.059004421271688 x[10,3]
   + 6.386111085071326 x[10,4] + 2.920997962390828 x[10,5]
   + 2.366196105742373 x[10,6] + 11.19162155469709 x[10,7]
   + 8.732833689926878 x[10,8] + 9.331590660111912 x[10,9]
   + 7.830514196285216 x[10,11] + 10.36822965208133 x[10,12]
   + 1.939279455581392 x[10,13] + 7.661570467253066 x[10,14]
   + 7.717774255978609 x[10,15] + 6.323456109717549 x[11,0]
   + 6.7780526280756 x[11,1] + 14.9707000323158 x[11,2]
   + 2.194980288220078 x[11,3] + 10.28003352341148 x[11,4]
   + 9.601392770261743 x[11,5] + 7.69467977455425 x[11,6]
   + 4.046805271037077 x[11,7] + 15.90336358622744 x[11,8]
   + 2.299546429189744 x[11,9] + 7.830514196285216 x[11,10]
   + 9.412490973440535 x[11,12] + 9.127693949161953 x[11,13]
   + 2.479917659705066 x[11,14] + 7.29444117119654 x[11,15]
   + 9.867905141627174 x[12,0] + 3.047078954493509 x[12,1]
   + 17.02442805043786 x[12,2] + 7.31112982384169 x[12,3]
   + 5.963463545145161 x[12,4] + 13.28917795647612 x[12,5]
   + 12.23863302113543 x[12,6] + 13.0247382097762 x[12,7]
   + 18.54245110203433 x[12,8] + 11.62198780000046 x[12,9]
   + 10.36822965208133 x[12,10] + 9.412490973440535 x[12,11]
   + 12.29427132284484 x[12,13] + 11.63053115578861 x[12,14]
   + 15.43004966453932 x[12,15] + 3.010090273278318 x[13,0]
   + 11.74815070126999 x[13,1] + 5.861518363473073 x[13,2]
   + 9.673284476512894 x[13,3] + 7.98777201411389 x[13,4]
   + 1.032117020027261 x[13,5] + 1.824206798482465 x[13,6]
   + 12.08415705234142 x[13,7] + 6.950961061799995 x[13,8]
   + 10.30794659453994 x[13,9] + 1.939279455581392 x[13,10]
   + 9.127693949161953 x[13,11] + 12.29427132284484 x[13,12]
   + 8.479436872822477 x[13,14] + 7.318153999977602 x[13,15]
   + 6.184351148399838 x[14,0] + 9.160931420613332 x[14,1]
   + 14.09832374404935 x[14,2] + 4.634916101741141 x[14,3]
   + 11.56038967203322 x[14,4] + 8.698033227459579 x[14,5]
   + 6.779297314727132 x[14,6] + 3.605884682520931 x[14,7]
   + 14.81141757857164 x[14,8] + 1.939285464182847 x[14,9]
   + 7.661570467253066 x[14,10] + 2.479917659705066 x[14,11]
   + 11.63053115578861 x[14,12] + 8.479436872822477 x[14,13]
   + 4.952922751899005 x[14,15] + 6.832004780794803 x[15,0]
   + 13.44114615224452 x[15,1] + 11.59990003017563 x[15,2]
   + 9.249353263229342 x[15,3] + 13.56261111226924 x[15,4]
   + 6.915283777281211 x[15,5] + 5.595453922226686 x[15,6]
   + 7.529319573105195 x[15,7] + 11.8089254578651 x[15,8]
   + 6.593759359488961 x[15,9] + 7.717774255978609 x[15,10]
   + 7.29444117119654 x[15,11] + 15.43004966453932 x[15,12]
   + 7.318153999977602 x[15,13] + 4.952922751899005 x[15,14]
Subject To
 depot_exit: x[0,1] + x[0,2] + x[0,3] + x[0,4] + x[0,5] + x[0,6] + x[0,7]
   + x[0,8] + x[0,9] + x[0,10] + x[0,11] + x[0,12] + x[0,13] + x[0,14]
   + x[0,15] <= 1
 depot_return: - x[0,1] - x[0,2] - x[0,3] - x[0,4] - x[0,5] - x[0,6]
   - x[0,7] - x[0,8] - x[0,9] - x[0,10] - x[0,11] - x[0,12] - x[0,13]
   - x[0,14] - x[0,15] + x[1,0] + x[2,0] + x[3,0] + x[4,0] + x[5,0]
   + x[6,0] + x[7,0] + x[8,0] + x[9,0] + x[10,0] + x[11,0] + x[12,0]
   + x[13,0] + x[14,0] + x[15,0] = 0
 demand_satisfaction_11: x[1,0] + x[1,1] + x[1,2] + x[1,3] + x[1,4]
   + x[1,5] + x[1,6] + x[1,7] + x[1,8] + x[1,9] + x[1,10] + x[1,11]
   + x[1,12] + x[1,13] + x[1,14] + x[1,15] = 1
 demand_satisfaction_2_1: x[0,1] + x[1,1] + x[2,1] + x[3,1] + x[4,1]
   + x[5,1] + x[6,1] + x[7,1] + x[8,1] + x[9,1] + x[10,1] + x[11,1]
   + x[12,1] + x[13,1] + x[14,1] + x[15,1] = 1
 demand_satisfaction_12: x[2,0] + x[2,1] + x[2,2] + x[2,3] + x[2,4]
   + x[2,5] + x[2,6] + x[2,7] + x[2,8] + x[2,9] + x[2,10] + x[2,11]
   + x[2,12] + x[2,13] + x[2,14] + x[2,15] = 1
 demand_satisfaction_2_2: x[0,2] + x[1,2] + x[2,2] + x[3,2] + x[4,2]
   + x[5,2] + x[6,2] + x[7,2] + x[8,2] + x[9,2] + x[10,2] + x[11,2]
   + x[12,2] + x[13,2] + x[14,2] + x[15,2] = 1
 demand_satisfaction_13: x[3,0] + x[3,1] + x[3,2] + x[3,3] + x[3,4]
   + x[3,5] + x[3,6] + x[3,7] + x[3,8] + x[3,9] + x[3,10] + x[3,11]
   + x[3,12] + x[3,13] + x[3,14] + x[3,15] = 1
 demand_satisfaction_2_3: x[0,3] + x[1,3] + x[2,3] + x[3,3] + x[4,3]
   + x[5,3] + x[6,3] + x[7,3] + x[8,3] + x[9,3] + x[10,3] + x[11,3]
   + x[12,3] + x[13,3] + x[14,3] + x[15,3] = 1
 demand_satisfaction_14: x[4,0] + x[4,1] + x[4,2] + x[4,3] + x[4,4]
   + x[4,5] + x[4,6] + x[4,7] + x[4,8] + x[4,9] + x[4,10] + x[4,11]
   + x[4,12] + x[4,13] + x[4,14] + x[4,15] = 1
 demand_satisfaction_2_4: x[0,4] + x[1,4] + x[2,4] + x[3,4] + x[4,4]
   + x[5,4] + x[6,4] + x[7,4] + x[8,4] + x[9,4] + x[10,4] + x[11,4]
   + x[12,4] + x[13,4] + x[14,4] + x[15,4] = 1
 demand_satisfaction_15: x[5,0] + x[5,1] + x[5,2] + x[5,3] + x[5,4]
   + x[5,5] + x[5,6] + x[5,7] + x[5,8] + x[5,9] + x[5,10] + x[5,11]
   + x[5,12] + x[5,13] + x[5,14] + x[5,15] = 1
 demand_satisfaction_2_5: x[0,5] + x[1,5] + x[2,5] + x[3,5] + x[4,5]
   + x[5,5] + x[6,5] + x[7,5] + x[8,5] + x[9,5] + x[10,5] + x[11,5]
   + x[12,5] + x[13,5] + x[14,5] + x[15,5] = 1
 demand_satisfaction_16: x[6,0] + x[6,1] + x[6,2] + x[6,3] + x[6,4]
   + x[6,5] + x[6,6] + x[6,7] + x[6,8] + x[6,9] + x[6,10] + x[6,11]
   + x[6,12] + x[6,13] + x[6,14] + x[6,15] = 1
 demand_satisfaction_2_6: x[0,6] + x[1,6] + x[2,6] + x[3,6] + x[4,6]
   + x[5,6] + x[6,6] + x[7,6] + x[8,6] + x[9,6] + x[10,6] + x[11,6]
   + x[12,6] + x[13,6] + x[14,6] + x[15,6] = 1
 demand_satisfaction_17: x[7,0] + x[7,1] + x[7,2] + x[7,3] + x[7,4]
   + x[7,5] + x[7,6] + x[7,7] + x[7,8] + x[7,9] + x[7,10] + x[7,11]
   + x[7,12] + x[7,13] + x[7,14] + x[7,15] = 1
 demand_satisfaction_2_7: x[0,7] + x[1,7] + x[2,7] + x[3,7] + x[4,7]
   + x[5,7] + x[6,7] + x[7,7] + x[8,7] + x[9,7] + x[10,7] + x[11,7]
   + x[12,7] + x[13,7] + x[14,7] + x[15,7] = 1
 demand_satisfaction_18: x[8,0] + x[8,1] + x[8,2] + x[8,3] + x[8,4]
   + x[8,5] + x[8,6] + x[8,7] + x[8,8] + x[8,9] + x[8,10] + x[8,11]
   + x[8,12] + x[8,13] + x[8,14] + x[8,15] = 1
 demand_satisfaction_2_8: x[0,8] + x[1,8] + x[2,8] + x[3,8] + x[4,8]
   + x[5,8] + x[6,8] + x[7,8] + x[8,8] + x[9,8] + x[10,8] + x[11,8]
   + x[12,8] + x[13,8] + x[14,8] + x[15,8] = 1
 demand_satisfaction_19: x[9,0] + x[9,1] + x[9,2] + x[9,3] + x[9,4]
   + x[9,5] + x[9,6] + x[9,7] + x[9,8] + x[9,9] + x[9,10] + x[9,11]
   + x[9,12] + x[9,13] + x[9,14] + x[9,15] = 1
 demand_satisfaction_2_9: x[0,9] + x[1,9] + x[2,9] + x[3,9] + x[4,9]
   + x[5,9] + x[6,9] + x[7,9] + x[8,9] + x[9,9] + x[10,9] + x[11,9]
   + x[12,9] + x[13,9] + x[14,9] + x[15,9] = 1
 demand_satisfaction_110: x[10,0] + x[10,1] + x[10,2] + x[10,3] + x[10,4]
   + x[10,5] + x[10,6] + x[10,7] + x[10,8] + x[10,9] + x[10,10] + x[10,11]
   + x[10,12] + x[10,13] + x[10,14] + x[10,15] = 1
 demand_satisfaction_2_10: x[0,10] + x[1,10] + x[2,10] + x[3,10] + x[4,10]
   + x[5,10] + x[6,10] + x[7,10] + x[8,10] + x[9,10] + x[10,10] + x[11,10]
   + x[12,10] + x[13,10] + x[14,10] + x[15,10] = 1
 demand_satisfaction_111: x[11,0] + x[11,1] + x[11,2] + x[11,3] + x[11,4]
   + x[11,5] + x[11,6] + x[11,7] + x[11,8] + x[11,9] + x[11,10] + x[11,11]
   + x[11,12] + x[11,13] + x[11,14] + x[11,15] = 1
 demand_satisfaction_2_11: x[0,11] + x[1,11] + x[2,11] + x[3,11] + x[4,11]
   + x[5,11] + x[6,11] + x[7,11] + x[8,11] + x[9,11] + x[10,11] + x[11,11]
   + x[12,11] + x[13,11] + x[14,11] + x[15,11] = 1
 demand_satisfaction_112: x[12,0] + x[12,1] + x[12,2] + x[12,3] + x[12,4]
   + x[12,5] + x[12,6] + x[12,7] + x[12,8] + x[12,9] + x[12,10] + x[12,11]
   + x[12,12] + x[12,13] + x[12,14] + x[12,15] = 1
 demand_satisfaction_2_12: x[0,12] + x[1,12] + x[2,12] + x[3,12] + x[4,12]
   + x[5,12] + x[6,12] + x[7,12] + x[8,12] + x[9,12] + x[10,12] + x[11,12]
   + x[12,12] + x[13,12] + x[14,12] + x[15,12] = 1
 demand_satisfaction_113: x[13,0] + x[13,1] + x[13,2] + x[13,3] + x[13,4]
   + x[13,5] + x[13,6] + x[13,7] + x[13,8] + x[13,9] + x[13,10] + x[13,11]
   + x[13,12] + x[13,13] + x[13,14] + x[13,15] = 1
 demand_satisfaction_2_13: x[0,13] + x[1,13] + x[2,13] + x[3,13] + x[4,13]
   + x[5,13] + x[6,13] + x[7,13] + x[8,13] + x[9,13] + x[10,13] + x[11,13]
   + x[12,13] + x[13,13] + x[14,13] + x[15,13] = 1
 demand_satisfaction_114: x[14,0] + x[14,1] + x[14,2] + x[14,3] + x[14,4]
   + x[14,5] + x[14,6] + x[14,7] + x[14,8] + x[14,9] + x[14,10] + x[14,11]
   + x[14,12] + x[14,13] + x[14,14] + x[14,15] = 1
 demand_satisfaction_2_14: x[0,14] + x[1,14] + x[2,14] + x[3,14] + x[4,14]
   + x[5,14] + x[6,14] + x[7,14] + x[8,14] + x[9,14] + x[10,14] + x[11,14]
   + x[12,14] + x[13,14] + x[14,14] + x[15,14] = 1
 demand_satisfaction_115: x[15,0] + x[15,1] + x[15,2] + x[15,3] + x[15,4]
   + x[15,5] + x[15,6] + x[15,7] + x[15,8] + x[15,9] + x[15,10] + x[15,11]
   + x[15,12] + x[15,13] + x[15,14] + x[15,15] = 1
 demand_satisfaction_2_15: x[0,15] + x[1,15] + x[2,15] + x[3,15] + x[4,15]
   + x[5,15] + x[6,15] + x[7,15] + x[8,15] + x[9,15] + x[10,15] + x[11,15]
   + x[12,15] + x[13,15] + x[14,15] + x[15,15] = 1
 demand_flow_balance1_1: - 1.0000000001e+10 x[1,1] >= -1e+10
 demand_flow_balance1_2: - 1.0000000001e+10 x[1,2] - z[1] + z[2] >= -1e+10
 demand_flow_balance1_3: - 1.0000000001e+10 x[1,3] - z[1] + z[3] >= -1e+10
 demand_flow_balance1_4: - 1.0000000001e+10 x[1,4] - z[1] + z[4] >= -1e+10
 demand_flow_balance1_5: - 1.0000000001e+10 x[1,5] - z[1] + z[5] >= -1e+10
 demand_flow_balance1_6: - 1.0000000001e+10 x[1,6] - z[1] + z[6] >= -1e+10
 demand_flow_balance1_7: - 1.0000000001e+10 x[1,7] - z[1] + z[7] >= -1e+10
 demand_flow_balance1_8: - 1.0000000001e+10 x[1,8] - z[1] + z[8] >= -1e+10
 demand_flow_balance1_9: - 1.0000000001e+10 x[1,9] - z[1] + z[9] >= -1e+10
 demand_flow_balance1_10: - 1.0000000001e+10 x[1,10] - z[1] + z[10]
   >= -1e+10
 demand_flow_balance1_11: - 1.0000000001e+10 x[1,11] - z[1] + z[11]
   >= -1e+10
 demand_flow_balance1_12: - 1.0000000001e+10 x[1,12] - z[1] + z[12]
   >= -1e+10
 demand_flow_balance1_13: - 1.0000000001e+10 x[1,13] - z[1] + z[13]
   >= -1e+10
 demand_flow_balance1_14: - 1.0000000001e+10 x[1,14] - z[1] + z[14]
   >= -1e+10
 demand_flow_balance1_15: - 1.0000000001e+10 x[1,15] - z[1] + z[15]
   >= -1e+10
 demand_flow_balance2_1: - 1.0000000001e+10 x[2,1] + z[1] - z[2] >= -1e+10
 demand_flow_balance2_2: - 1.0000000001e+10 x[2,2] >= -1e+10
 demand_flow_balance2_3: - 1.0000000001e+10 x[2,3] - z[2] + z[3] >= -1e+10
 demand_flow_balance2_4: - 1.0000000001e+10 x[2,4] - z[2] + z[4] >= -1e+10
 demand_flow_balance2_5: - 1.0000000001e+10 x[2,5] - z[2] + z[5] >= -1e+10
 demand_flow_balance2_6: - 1.0000000001e+10 x[2,6] - z[2] + z[6] >= -1e+10
 demand_flow_balance2_7: - 1.0000000001e+10 x[2,7] - z[2] + z[7] >= -1e+10
 demand_flow_balance2_8: - 1.0000000001e+10 x[2,8] - z[2] + z[8] >= -1e+10
 demand_flow_balance2_9: - 1.0000000001e+10 x[2,9] - z[2] + z[9] >= -1e+10
 demand_flow_balance2_10: - 1.0000000001e+10 x[2,10] - z[2] + z[10]
   >= -1e+10
 demand_flow_balance2_11: - 1.0000000001e+10 x[2,11] - z[2] + z[11]
   >= -1e+10
 demand_flow_balance2_12: - 1.0000000001e+10 x[2,12] - z[2] + z[12]
   >= -1e+10
 demand_flow_balance2_13: - 1.0000000001e+10 x[2,13] - z[2] + z[13]
   >= -1e+10
 demand_flow_balance2_14: - 1.0000000001e+10 x[2,14] - z[2] + z[14]
   >= -1e+10
 demand_flow_balance2_15: - 1.0000000001e+10 x[2,15] - z[2] + z[15]
   >= -1e+10
 demand_flow_balance3_1: - 1.0000000001e+10 x[3,1] + z[1] - z[3] >= -1e+10
 demand_flow_balance3_2: - 1.0000000001e+10 x[3,2] + z[2] - z[3] >= -1e+10
 demand_flow_balance3_3: - 1.0000000001e+10 x[3,3] >= -1e+10
 demand_flow_balance3_4: - 1.0000000001e+10 x[3,4] - z[3] + z[4] >= -1e+10
 demand_flow_balance3_5: - 1.0000000001e+10 x[3,5] - z[3] + z[5] >= -1e+10
 demand_flow_balance3_6: - 1.0000000001e+10 x[3,6] - z[3] + z[6] >= -1e+10
 demand_flow_balance3_7: - 1.0000000001e+10 x[3,7] - z[3] + z[7] >= -1e+10
 demand_flow_balance3_8: - 1.0000000001e+10 x[3,8] - z[3] + z[8] >= -1e+10
 demand_flow_balance3_9: - 1.0000000001e+10 x[3,9] - z[3] + z[9] >= -1e+10
 demand_flow_balance3_10: - 1.0000000001e+10 x[3,10] - z[3] + z[10]
   >= -1e+10
 demand_flow_balance3_11: - 1.0000000001e+10 x[3,11] - z[3] + z[11]
   >= -1e+10
 demand_flow_balance3_12: - 1.0000000001e+10 x[3,12] - z[3] + z[12]
   >= -1e+10
 demand_flow_balance3_13: - 1.0000000001e+10 x[3,13] - z[3] + z[13]
   >= -1e+10
 demand_flow_balance3_14: - 1.0000000001e+10 x[3,14] - z[3] + z[14]
   >= -1e+10
 demand_flow_balance3_15: - 1.0000000001e+10 x[3,15] - z[3] + z[15]
   >= -1e+10
 demand_flow_balance4_1: - 1.0000000001e+10 x[4,1] + z[1] - z[4] >= -1e+10
 demand_flow_balance4_2: - 1.0000000001e+10 x[4,2] + z[2] - z[4] >= -1e+10
 demand_flow_balance4_3: - 1.0000000001e+10 x[4,3] + z[3] - z[4] >= -1e+10
 demand_flow_balance4_4: - 1.0000000001e+10 x[4,4] >= -1e+10
 demand_flow_balance4_5: - 1.0000000001e+10 x[4,5] - z[4] + z[5] >= -1e+10
 demand_flow_balance4_6: - 1.0000000001e+10 x[4,6] - z[4] + z[6] >= -1e+10
 demand_flow_balance4_7: - 1.0000000001e+10 x[4,7] - z[4] + z[7] >= -1e+10
 demand_flow_balance4_8: - 1.0000000001e+10 x[4,8] - z[4] + z[8] >= -1e+10
 demand_flow_balance4_9: - 1.0000000001e+10 x[4,9] - z[4] + z[9] >= -1e+10
 demand_flow_balance4_10: - 1.0000000001e+10 x[4,10] - z[4] + z[10]
   >= -1e+10
 demand_flow_balance4_11: - 1.0000000001e+10 x[4,11] - z[4] + z[11]
   >= -1e+10
 demand_flow_balance4_12: - 1.0000000001e+10 x[4,12] - z[4] + z[12]
   >= -1e+10
 demand_flow_balance4_13: - 1.0000000001e+10 x[4,13] - z[4] + z[13]
   >= -1e+10
 demand_flow_balance4_14: - 1.0000000001e+10 x[4,14] - z[4] + z[14]
   >= -1e+10
 demand_flow_balance4_15: - 1.0000000001e+10 x[4,15] - z[4] + z[15]
   >= -1e+10
 demand_flow_balance5_1: - 1.0000000001e+10 x[5,1] + z[1] - z[5] >= -1e+10
 demand_flow_balance5_2: - 1.0000000001e+10 x[5,2] + z[2] - z[5] >= -1e+10
 demand_flow_balance5_3: - 1.0000000001e+10 x[5,3] + z[3] - z[5] >= -1e+10
 demand_flow_balance5_4: - 1.0000000001e+10 x[5,4] + z[4] - z[5] >= -1e+10
 demand_flow_balance5_5: - 1.0000000001e+10 x[5,5] >= -1e+10
 demand_flow_balance5_6: - 1.0000000001e+10 x[5,6] - z[5] + z[6] >= -1e+10
 demand_flow_balance5_7: - 1.0000000001e+10 x[5,7] - z[5] + z[7] >= -1e+10
 demand_flow_balance5_8: - 1.0000000001e+10 x[5,8] - z[5] + z[8] >= -1e+10
 demand_flow_balance5_9: - 1.0000000001e+10 x[5,9] - z[5] + z[9] >= -1e+10
 demand_flow_balance5_10: - 1.0000000001e+10 x[5,10] - z[5] + z[10]
   >= -1e+10
 demand_flow_balance5_11: - 1.0000000001e+10 x[5,11] - z[5] + z[11]
   >= -1e+10
 demand_flow_balance5_12: - 1.0000000001e+10 x[5,12] - z[5] + z[12]
   >= -1e+10
 demand_flow_balance5_13: - 1.0000000001e+10 x[5,13] - z[5] + z[13]
   >= -1e+10
 demand_flow_balance5_14: - 1.0000000001e+10 x[5,14] - z[5] + z[14]
   >= -1e+10
 demand_flow_balance5_15: - 1.0000000001e+10 x[5,15] - z[5] + z[15]
   >= -1e+10
 demand_flow_balance6_1: - 1.0000000001e+10 x[6,1] + z[1] - z[6] >= -1e+10
 demand_flow_balance6_2: - 1.0000000001e+10 x[6,2] + z[2] - z[6] >= -1e+10
 demand_flow_balance6_3: - 1.0000000001e+10 x[6,3] + z[3] - z[6] >= -1e+10
 demand_flow_balance6_4: - 1.0000000001e+10 x[6,4] + z[4] - z[6] >= -1e+10
 demand_flow_balance6_5: - 1.0000000001e+10 x[6,5] + z[5] - z[6] >= -1e+10
 demand_flow_balance6_6: - 1.0000000001e+10 x[6,6] >= -1e+10
 demand_flow_balance6_7: - 1.0000000001e+10 x[6,7] - z[6] + z[7] >= -1e+10
 demand_flow_balance6_8: - 1.0000000001e+10 x[6,8] - z[6] + z[8] >= -1e+10
 demand_flow_balance6_9: - 1.0000000001e+10 x[6,9] - z[6] + z[9] >= -1e+10
 demand_flow_balance6_10: - 1.0000000001e+10 x[6,10] - z[6] + z[10]
   >= -1e+10
 demand_flow_balance6_11: - 1.0000000001e+10 x[6,11] - z[6] + z[11]
   >= -1e+10
 demand_flow_balance6_12: - 1.0000000001e+10 x[6,12] - z[6] + z[12]
   >= -1e+10
 demand_flow_balance6_13: - 1.0000000001e+10 x[6,13] - z[6] + z[13]
   >= -1e+10
 demand_flow_balance6_14: - 1.0000000001e+10 x[6,14] - z[6] + z[14]
   >= -1e+10
 demand_flow_balance6_15: - 1.0000000001e+10 x[6,15] - z[6] + z[15]
   >= -1e+10
 demand_flow_balance7_1: - 1.0000000001e+10 x[7,1] + z[1] - z[7] >= -1e+10
 demand_flow_balance7_2: - 1.0000000001e+10 x[7,2] + z[2] - z[7] >= -1e+10
 demand_flow_balance7_3: - 1.0000000001e+10 x[7,3] + z[3] - z[7] >= -1e+10
 demand_flow_balance7_4: - 1.0000000001e+10 x[7,4] + z[4] - z[7] >= -1e+10
 demand_flow_balance7_5: - 1.0000000001e+10 x[7,5] + z[5] - z[7] >= -1e+10
 demand_flow_balance7_6: - 1.0000000001e+10 x[7,6] + z[6] - z[7] >= -1e+10
 demand_flow_balance7_7: - 1.0000000001e+10 x[7,7] >= -1e+10
 demand_flow_balance7_8: - 1.0000000001e+10 x[7,8] - z[7] + z[8] >= -1e+10
 demand_flow_balance7_9: - 1.0000000001e+10 x[7,9] - z[7] + z[9] >= -1e+10
 demand_flow_balance7_10: - 1.0000000001e+10 x[7,10] - z[7] + z[10]
   >= -1e+10
 demand_flow_balance7_11: - 1.0000000001e+10 x[7,11] - z[7] + z[11]
   >= -1e+10
 demand_flow_balance7_12: - 1.0000000001e+10 x[7,12] - z[7] + z[12]
   >= -1e+10
 demand_flow_balance7_13: - 1.0000000001e+10 x[7,13] - z[7] + z[13]
   >= -1e+10
 demand_flow_balance7_14: - 1.0000000001e+10 x[7,14] - z[7] + z[14]
   >= -1e+10
 demand_flow_balance7_15: - 1.0000000001e+10 x[7,15] - z[7] + z[15]
   >= -1e+10
 demand_flow_balance8_1: - 1.0000000001e+10 x[8,1] + z[1] - z[8] >= -1e+10
 demand_flow_balance8_2: - 1.0000000001e+10 x[8,2] + z[2] - z[8] >= -1e+10
 demand_flow_balance8_3: - 1.0000000001e+10 x[8,3] + z[3] - z[8] >= -1e+10
 demand_flow_balance8_4: - 1.0000000001e+10 x[8,4] + z[4] - z[8] >= -1e+10
 demand_flow_balance8_5: - 1.0000000001e+10 x[8,5] + z[5] - z[8] >= -1e+10
 demand_flow_balance8_6: - 1.0000000001e+10 x[8,6] + z[6] - z[8] >= -1e+10
 demand_flow_balance8_7: - 1.0000000001e+10 x[8,7] + z[7] - z[8] >= -1e+10
 demand_flow_balance8_8: - 1.0000000001e+10 x[8,8] >= -1e+10
 demand_flow_balance8_9: - 1.0000000001e+10 x[8,9] - z[8] + z[9] >= -1e+10
 demand_flow_balance8_10: - 1.0000000001e+10 x[8,10] - z[8] + z[10]
   >= -1e+10
 demand_flow_balance8_11: - 1.0000000001e+10 x[8,11] - z[8] + z[11]
   >= -1e+10
 demand_flow_balance8_12: - 1.0000000001e+10 x[8,12] - z[8] + z[12]
   >= -1e+10
 demand_flow_balance8_13: - 1.0000000001e+10 x[8,13] - z[8] + z[13]
   >= -1e+10
 demand_flow_balance8_14: - 1.0000000001e+10 x[8,14] - z[8] + z[14]
   >= -1e+10
 demand_flow_balance8_15: - 1.0000000001e+10 x[8,15] - z[8] + z[15]
   >= -1e+10
 demand_flow_balance9_1: - 1.0000000001e+10 x[9,1] + z[1] - z[9] >= -1e+10
 demand_flow_balance9_2: - 1.0000000001e+10 x[9,2] + z[2] - z[9] >= -1e+10
 demand_flow_balance9_3: - 1.0000000001e+10 x[9,3] + z[3] - z[9] >= -1e+10
 demand_flow_balance9_4: - 1.0000000001e+10 x[9,4] + z[4] - z[9] >= -1e+10
 demand_flow_balance9_5: - 1.0000000001e+10 x[9,5] + z[5] - z[9] >= -1e+10
 demand_flow_balance9_6: - 1.0000000001e+10 x[9,6] + z[6] - z[9] >= -1e+10
 demand_flow_balance9_7: - 1.0000000001e+10 x[9,7] + z[7] - z[9] >= -1e+10
 demand_flow_balance9_8: - 1.0000000001e+10 x[9,8] + z[8] - z[9] >= -1e+10
 demand_flow_balance9_9: - 1.0000000001e+10 x[9,9] >= -1e+10
 demand_flow_balance9_10: - 1.0000000001e+10 x[9,10] - z[9] + z[10]
   >= -1e+10
 demand_flow_balance9_11: - 1.0000000001e+10 x[9,11] - z[9] + z[11]
   >= -1e+10
 demand_flow_balance9_12: - 1.0000000001e+10 x[9,12] - z[9] + z[12]
   >= -1e+10
 demand_flow_balance9_13: - 1.0000000001e+10 x[9,13] - z[9] + z[13]
   >= -1e+10
 demand_flow_balance9_14: - 1.0000000001e+10 x[9,14] - z[9] + z[14]
   >= -1e+10
 demand_flow_balance9_15: - 1.0000000001e+10 x[9,15] - z[9] + z[15]
   >= -1e+10
 demand_flow_balance10_1: - 1.0000000001e+10 x[10,1] + z[1] - z[10]
   >= -1e+10
 demand_flow_balance10_2: - 1.0000000001e+10 x[10,2] + z[2] - z[10]
   >= -1e+10
 demand_flow_balance10_3: - 1.0000000001e+10 x[10,3] + z[3] - z[10]
   >= -1e+10
 demand_flow_balance10_4: - 1.0000000001e+10 x[10,4] + z[4] - z[10]
   >= -1e+10
 demand_flow_balance10_5: - 1.0000000001e+10 x[10,5] + z[5] - z[10]
   >= -1e+10
 demand_flow_balance10_6: - 1.0000000001e+10 x[10,6] + z[6] - z[10]
   >= -1e+10
 demand_flow_balance10_7: - 1.0000000001e+10 x[10,7] + z[7] - z[10]
   >= -1e+10
 demand_flow_balance10_8: - 1.0000000001e+10 x[10,8] + z[8] - z[10]
   >= -1e+10
 demand_flow_balance10_9: - 1.0000000001e+10 x[10,9] + z[9] - z[10]
   >= -1e+10
 demand_flow_balance10_10: - 1.0000000001e+10 x[10,10] >= -1e+10
 demand_flow_balance10_11: - 1.0000000001e+10 x[10,11] - z[10] + z[11]
   >= -1e+10
 demand_flow_balance10_12: - 1.0000000001e+10 x[10,12] - z[10] + z[12]
   >= -1e+10
 demand_flow_balance10_13: - 1.0000000001e+10 x[10,13] - z[10] + z[13]
   >= -1e+10
 demand_flow_balance10_14: - 1.0000000001e+10 x[10,14] - z[10] + z[14]
   >= -1e+10
 demand_flow_balance10_15: - 1.0000000001e+10 x[10,15] - z[10] + z[15]
   >= -1e+10
 demand_flow_balance11_1: - 1.0000000001e+10 x[11,1] + z[1] - z[11]
   >= -1e+10
 demand_flow_balance11_2: - 1.0000000001e+10 x[11,2] + z[2] - z[11]
   >= -1e+10
 demand_flow_balance11_3: - 1.0000000001e+10 x[11,3] + z[3] - z[11]
   >= -1e+10
 demand_flow_balance11_4: - 1.0000000001e+10 x[11,4] + z[4] - z[11]
   >= -1e+10
 demand_flow_balance11_5: - 1.0000000001e+10 x[11,5] + z[5] - z[11]
   >= -1e+10
 demand_flow_balance11_6: - 1.0000000001e+10 x[11,6] + z[6] - z[11]
   >= -1e+10
 demand_flow_balance11_7: - 1.0000000001e+10 x[11,7] + z[7] - z[11]
   >= -1e+10
 demand_flow_balance11_8: - 1.0000000001e+10 x[11,8] + z[8] - z[11]
   >= -1e+10
 demand_flow_balance11_9: - 1.0000000001e+10 x[11,9] + z[9] - z[11]
   >= -1e+10
 demand_flow_balance11_10: - 1.0000000001e+10 x[11,10] + z[10] - z[11]
   >= -1e+10
 demand_flow_balance11_11: - 1.0000000001e+10 x[11,11] >= -1e+10
 demand_flow_balance11_12: - 1.0000000001e+10 x[11,12] - z[11] + z[12]
   >= -1e+10
 demand_flow_balance11_13: - 1.0000000001e+10 x[11,13] - z[11] + z[13]
   >= -1e+10
 demand_flow_balance11_14: - 1.0000000001e+10 x[11,14] - z[11] + z[14]
   >= -1e+10
 demand_flow_balance11_15: - 1.0000000001e+10 x[11,15] - z[11] + z[15]
   >= -1e+10
 demand_flow_balance12_1: - 1.0000000001e+10 x[12,1] + z[1] - z[12]
   >= -1e+10
 demand_flow_balance12_2: - 1.0000000001e+10 x[12,2] + z[2] - z[12]
   >= -1e+10
 demand_flow_balance12_3: - 1.0000000001e+10 x[12,3] + z[3] - z[12]
   >= -1e+10
 demand_flow_balance12_4: - 1.0000000001e+10 x[12,4] + z[4] - z[12]
   >= -1e+10
 demand_flow_balance12_5: - 1.0000000001e+10 x[12,5] + z[5] - z[12]
   >= -1e+10
 demand_flow_balance12_6: - 1.0000000001e+10 x[12,6] + z[6] - z[12]
   >= -1e+10
 demand_flow_balance12_7: - 1.0000000001e+10 x[12,7] + z[7] - z[12]
   >= -1e+10
 demand_flow_balance12_8: - 1.0000000001e+10 x[12,8] + z[8] - z[12]
   >= -1e+10
 demand_flow_balance12_9: - 1.0000000001e+10 x[12,9] + z[9] - z[12]
   >= -1e+10
 demand_flow_balance12_10: - 1.0000000001e+10 x[12,10] + z[10] - z[12]
   >= -1e+10
 demand_flow_balance12_11: - 1.0000000001e+10 x[12,11] + z[11] - z[12]
   >= -1e+10
 demand_flow_balance12_12: - 1.0000000001e+10 x[12,12] >= -1e+10
 demand_flow_balance12_13: - 1.0000000001e+10 x[12,13] - z[12] + z[13]
   >= -1e+10
 demand_flow_balance12_14: - 1.0000000001e+10 x[12,14] - z[12] + z[14]
   >= -1e+10
 demand_flow_balance12_15: - 1.0000000001e+10 x[12,15] - z[12] + z[15]
   >= -1e+10
 demand_flow_balance13_1: - 1.0000000001e+10 x[13,1] + z[1] - z[13]
   >= -1e+10
 demand_flow_balance13_2: - 1.0000000001e+10 x[13,2] + z[2] - z[13]
   >= -1e+10
 demand_flow_balance13_3: - 1.0000000001e+10 x[13,3] + z[3] - z[13]
   >= -1e+10
 demand_flow_balance13_4: - 1.0000000001e+10 x[13,4] + z[4] - z[13]
   >= -1e+10
 demand_flow_balance13_5: - 1.0000000001e+10 x[13,5] + z[5] - z[13]
   >= -1e+10
 demand_flow_balance13_6: - 1.0000000001e+10 x[13,6] + z[6] - z[13]
   >= -1e+10
 demand_flow_balance13_7: - 1.0000000001e+10 x[13,7] + z[7] - z[13]
   >= -1e+10
 demand_flow_balance13_8: - 1.0000000001e+10 x[13,8] + z[8] - z[13]
   >= -1e+10
 demand_flow_balance13_9: - 1.0000000001e+10 x[13,9] + z[9] - z[13]
   >= -1e+10
 demand_flow_balance13_10: - 1.0000000001e+10 x[13,10] + z[10] - z[13]
   >= -1e+10
 demand_flow_balance13_11: - 1.0000000001e+10 x[13,11] + z[11] - z[13]
   >= -1e+10
 demand_flow_balance13_12: - 1.0000000001e+10 x[13,12] + z[12] - z[13]
   >= -1e+10
 demand_flow_balance13_13: - 1.0000000001e+10 x[13,13] >= -1e+10
 demand_flow_balance13_14: - 1.0000000001e+10 x[13,14] - z[13] + z[14]
   >= -1e+10
 demand_flow_balance13_15: - 1.0000000001e+10 x[13,15] - z[13] + z[15]
   >= -1e+10
 demand_flow_balance14_1: - 1.0000000001e+10 x[14,1] + z[1] - z[14]
   >= -1e+10
 demand_flow_balance14_2: - 1.0000000001e+10 x[14,2] + z[2] - z[14]
   >= -1e+10
 demand_flow_balance14_3: - 1.0000000001e+10 x[14,3] + z[3] - z[14]
   >= -1e+10
 demand_flow_balance14_4: - 1.0000000001e+10 x[14,4] + z[4] - z[14]
   >= -1e+10
 demand_flow_balance14_5: - 1.0000000001e+10 x[14,5] + z[5] - z[14]
   >= -1e+10
 demand_flow_balance14_6: - 1.0000000001e+10 x[14,6] + z[6] - z[14]
   >= -1e+10
 demand_flow_balance14_7: - 1.0000000001e+10 x[14,7] + z[7] - z[14]
   >= -1e+10
 demand_flow_balance14_8: - 1.0000000001e+10 x[14,8] + z[8] - z[14]
   >= -1e+10
 demand_flow_balance14_9: - 1.0000000001e+10 x[14,9] + z[9] - z[14]
   >= -1e+10
 demand_flow_balance14_10: - 1.0000000001e+10 x[14,10] + z[10] - z[14]
   >= -1e+10
 demand_flow_balance14_11: - 1.0000000001e+10 x[14,11] + z[11] - z[14]
   >= -1e+10
 demand_flow_balance14_12: - 1.0000000001e+10 x[14,12] + z[12] - z[14]
   >= -1e+10
 demand_flow_balance14_13: - 1.0000000001e+10 x[14,13] + z[13] - z[14]
   >= -1e+10
 demand_flow_balance14_14: - 1.0000000001e+10 x[14,14] >= -1e+10
 demand_flow_balance14_15: - 1.0000000001e+10 x[14,15] - z[14] + z[15]
   >= -1e+10
 demand_flow_balance15_1: - 1.0000000001e+10 x[15,1] + z[1] - z[15]
   >= -1e+10
 demand_flow_balance15_2: - 1.0000000001e+10 x[15,2] + z[2] - z[15]
   >= -1e+10
 demand_flow_balance15_3: - 1.0000000001e+10 x[15,3] + z[3] - z[15]
   >= -1e+10
 demand_flow_balance15_4: - 1.0000000001e+10 x[15,4] + z[4] - z[15]
   >= -1e+10
 demand_flow_balance15_5: - 1.0000000001e+10 x[15,5] + z[5] - z[15]
   >= -1e+10
 demand_flow_balance15_6: - 1.0000000001e+10 x[15,6] + z[6] - z[15]
   >= -1e+10
 demand_flow_balance15_7: - 1.0000000001e+10 x[15,7] + z[7] - z[15]
   >= -1e+10
 demand_flow_balance15_8: - 1.0000000001e+10 x[15,8] + z[8] - z[15]
   >= -1e+10
 demand_flow_balance15_9: - 1.0000000001e+10 x[15,9] + z[9] - z[15]
   >= -1e+10
 demand_flow_balance15_10: - 1.0000000001e+10 x[15,10] + z[10] - z[15]
   >= -1e+10
 demand_flow_balance15_11: - 1.0000000001e+10 x[15,11] + z[11] - z[15]
   >= -1e+10
 demand_flow_balance15_12: - 1.0000000001e+10 x[15,12] + z[12] - z[15]
   >= -1e+10
 demand_flow_balance15_13: - 1.0000000001e+10 x[15,13] + z[13] - z[15]
   >= -1e+10
 demand_flow_balance15_14: - 1.0000000001e+10 x[15,14] + z[14] - z[15]
   >= -1e+10
 demand_flow_balance15_15: - 1.0000000001e+10 x[15,15] >= -1e+10
 R257: z[0] <= 4
 R258: z[1] <= 4
 R259: z[2] <= 4
 R260: z[3] <= 4
 R261: z[4] <= 4
 R262: z[5] <= 4
 R263: z[6] <= 4
 R264: z[7] <= 4
 R265: z[8] <= 4
 R266: z[9] <= 4
 R267: z[10] <= 4
 R268: z[11] <= 4
 R269: z[12] <= 4
 R270: z[13] <= 4
 R271: z[14] <= 4
 R272: z[15] <= 4
Bounds
Binaries
 x[0,0] x[0,1] x[0,2] x[0,3] x[0,4] x[0,5] x[0,6] x[0,7] x[0,8] x[0,9]
 x[0,10] x[0,11] x[0,12] x[0,13] x[0,14] x[0,15] x[1,0] x[1,1] x[1,2]
 x[1,3] x[1,4] x[1,5] x[1,6] x[1,7] x[1,8] x[1,9] x[1,10] x[1,11] x[1,12]
 x[1,13] x[1,14] x[1,15] x[2,0] x[2,1] x[2,2] x[2,3] x[2,4] x[2,5] x[2,6]
 x[2,7] x[2,8] x[2,9] x[2,10] x[2,11] x[2,12] x[2,13] x[2,14] x[2,15]
 x[3,0] x[3,1] x[3,2] x[3,3] x[3,4] x[3,5] x[3,6] x[3,7] x[3,8] x[3,9]
 x[3,10] x[3,11] x[3,12] x[3,13] x[3,14] x[3,15] x[4,0] x[4,1] x[4,2]
 x[4,3] x[4,4] x[4,5] x[4,6] x[4,7] x[4,8] x[4,9] x[4,10] x[4,11] x[4,12]
 x[4,13] x[4,14] x[4,15] x[5,0] x[5,1] x[5,2] x[5,3] x[5,4] x[5,5] x[5,6]
 x[5,7] x[5,8] x[5,9] x[5,10] x[5,11] x[5,12] x[5,13] x[5,14] x[5,15]
 x[6,0] x[6,1] x[6,2] x[6,3] x[6,4] x[6,5] x[6,6] x[6,7] x[6,8] x[6,9]
 x[6,10] x[6,11] x[6,12] x[6,13] x[6,14] x[6,15] x[7,0] x[7,1] x[7,2]
 x[7,3] x[7,4] x[7,5] x[7,6] x[7,7] x[7,8] x[7,9] x[7,10] x[7,11] x[7,12]
 x[7,13] x[7,14] x[7,15] x[8,0] x[8,1] x[8,2] x[8,3] x[8,4] x[8,5] x[8,6]
 x[8,7] x[8,8] x[8,9] x[8,10] x[8,11] x[8,12] x[8,13] x[8,14] x[8,15]
 x[9,0] x[9,1] x[9,2] x[9,3] x[9,4] x[9,5] x[9,6] x[9,7] x[9,8] x[9,9]
 x[9,10] x[9,11] x[9,12] x[9,13] x[9,14] x[9,15] x[10,0] x[10,1] x[10,2]
 x[10,3] x[10,4] x[10,5] x[10,6] x[10,7] x[10,8] x[10,9] x[10,10] x[10,11]
 x[10,12] x[10,13] x[10,14] x[10,15] x[11,0] x[11,1] x[11,2] x[11,3]
 x[11,4] x[11,5] x[11,6] x[11,7] x[11,8] x[11,9] x[11,10] x[11,11] x[11,12]
 x[11,13] x[11,14] x[11,15] x[12,0] x[12,1] x[12,2] x[12,3] x[12,4] x[12,5]
 x[12,6] x[12,7] x[12,8] x[12,9] x[12,10] x[12,11] x[12,12] x[12,13]
 x[12,14] x[12,15] x[13,0] x[13,1] x[13,2] x[13,3] x[13,4] x[13,5] x[13,6]
 x[13,7] x[13,8] x[13,9] x[13,10] x[13,11] x[13,12] x[13,13] x[13,14]
 x[13,15] x[14,0] x[14,1] x[14,2] x[14,3] x[14,4] x[14,5] x[14,6] x[14,7]
 x[14,8] x[14,9] x[14,10] x[14,11] x[14,12] x[14,13] x[14,14] x[14,15]
 x[15,0] x[15,1] x[15,2] x[15,3] x[15,4] x[15,5] x[15,6] x[15,7] x[15,8]
 x[15,9] x[15,10] x[15,11] x[15,12] x[15,13] x[15,14] x[15,15]
End
